nNurses = 98;
nHours = 27;
minHours = 3;
maxHours = 14;
maxConsec = 7;
maxPresence = 15;
demand = [37, 33, 34, 33, 38, 36, 40, 38, 39, 40, 35, 36, 38, 39, 35, 30, 34, 34, 39, 40, 35, 32, 32, 27, 24, 23, 23];
